# Solution for model GasLib-40
# Objective value = 5.2600302811824939e+01
loadshed[innode_1] 0
loadshed[innode_2] 0
loadshed[innode_3] 0
loadshed[innode_4] 0
loadshed[innode_5] 0
loadshed[innode_6] 0
loadshed[innode_7] 0
loadshed[innode_8] 0
loadshed[source_1] -4.6170230346160634e-02
loadshed[source_2] 1.0895135923750454e-01
loadshed[source_3] 2.6994206921547914e-01
loadshed[sink_1] 3.3242575393729323e-01
loadshed[sink_2] 0
loadshed[sink_3] 0
loadshed[sink_4] 0
loadshed[sink_5] 0
loadshed[sink_6] 0
loadshed[sink_7] 0
loadshed[sink_8] 0
loadshed[sink_9] 0
loadshed[sink_10] 0
loadshed[sink_11] 0
loadshed[sink_12] 1
loadshed[sink_13] 0
loadshed[sink_14] 0
loadshed[sink_15] 0
loadshed[sink_16] 0
loadshed[sink_17] 0
loadshed[sink_18] 0
loadshed[sink_19] 0
loadshed[sink_20] 0
loadshed[sink_21] 1
loadshed[sink_22] 0
loadshed[sink_23] 0
loadshed[sink_24] 8.8389849442907220e-01
loadshed[sink_25] 0
loadshed[sink_26] 0
loadshed[sink_27] 0
loadshed[sink_28] 0
loadshed[sink_29] 0
flow[source_1,sink_3] 1.6538934231826630e+02
flow[innode_1,sink_16] 1.6354166666666970e+01
flow[innode_6,sink_13] -0.935894404927538
flow[sink_13,sink_14] -1.7290061071594206e+01
flow[sink_14,sink_10] -3.3644227738260874e+01
flow[sink_25,sink_26] 4.9062500000001364e+01
flow[sink_26,sink_9] 3.2708333333334551e+01
flow[sink_9,sink_18] 1.6354166666667879e+01
flow[sink_26,sink_4] 0
flow[sink_4,sink_20] -6.2474080114917577e+01
flow[sink_18,sink_6] 0
flow[sink_25,innode_8] -1.3268100898492995e+02
flow[sink_6,sink_7] -4.3625953815817184e+01
flow[sink_6,sink_22] 2.7271787149150519e+01
flow[sink_7,sink_24] 1.8987433723578788e+00
flow[sink_22,sink_1] 1.0917620482483851e+01
flow[sink_24,sink_21] 0
flow[sink_21,sink_12] 0
flow[sink_7,sink_5] -6.1878863854841725e+01
flow[sink_5,sink_17] -78.2330305215084
flow[sink_17,sink_4] -4.6119913448250912e+01
flow[sink_17,sink_8] -4.8467283739924156e+01
flow[sink_3,sink_23] 16.3541666666697
flow[sink_8,sink_20] -6.4821450406590827e+01
flow[sink_25,sink_20] 1.4364969718817505e+02
flow[sink_25,sink_15] -75.4494604649862
flow[sink_15,sink_29] -5.2501819541301643e+01
flow[sink_29,sink_28] 1.6354166666667879e+01
flow[sink_29,sink_2] 55.6559742570179
flow[sink_2,sink_15] 3.9301807590351231e+01
flow[sink_29,innode_7] -1.4086612713165422e+02
flow[innode_4,sink_19] 4.4582814436061781e+01
flow[sink_19,innode_3] 4.0360534031363528e+01
flow[innode_4,innode_5] 7.0832246635532783e+01
flow[sink_27,innode_5] -7.0832246635532783e+01
flow[sink_27,sink_19] 5.4478079968866112e+01
flow[sink_10,sink_11] 3.2708333333333641e+01
flow[sink_10,innode_2] -4.2346193706897651e+01
flow[sink_10,innode_3] -4.0360534031363528e+01
flow[innode_6,sink_25] 0.935894404927538
flow[sink_11,innode_1] 1.6354166666666970e+01
flow[sink_19,innode_2] 4.2346193706897651e+01
flow[source_3,innode_4] 1.1541506107159456e+02
flow[source_2,innode_7] 1.4086612713165422e+02
flow[sink_3,innode_8] 1.3268100898492995e+02
pressure[innode_1] 7.6817214049015362e+01
pressure[innode_2] 79.2070865895365
pressure[innode_3] 7.9117712757258730e+01
pressure[innode_4] 81.01325
pressure[innode_5] 8.0964527845768146e+01
pressure[innode_6] 7.5341489159479892e+01
pressure[innode_7] 81.01325
pressure[innode_8] 8.0460416609648860e+01
pressure[source_1] 81.01325
pressure[source_2] 81.01325
pressure[source_3] 81.01325
pressure[sink_1] 1.0132499999999998e+00
pressure[sink_2] 7.5835804302140374e+01
pressure[sink_3] 8.0460416609648860e+01
pressure[sink_4] 3.6512451573148020e+01
pressure[sink_5] 2.8922105267603804e+01
pressure[sink_6] 2.5882893264491615e+00
pressure[sink_7] 3.1871696838052359e+00
pressure[sink_8] 3.6578697087283814e+01
pressure[sink_9] 69.9283679294036
pressure[sink_10] 7.6968915356618908e+01
pressure[sink_11] 7.6817214049015362e+01
pressure[sink_12] 1.01325
pressure[sink_13] 7.5346648588931771e+01
pressure[sink_14] 7.5377590626006935e+01
pressure[sink_15] 7.5707492562336753e+01
pressure[sink_16] 7.5795564214197682e+01
pressure[sink_17] 34.7499005568696
pressure[sink_18] 69.3366254356039
pressure[sink_19] 79.2070865895365
pressure[sink_20] 4.1095840578996814e+01
pressure[sink_21] 1.01325
pressure[sink_22] 1.7233948831924049e+00
pressure[sink_23] 8.0295698597989073e+01
pressure[sink_24] 1.01325
pressure[sink_25] 7.5341489159479892e+01
pressure[sink_26] 7.1886046097288215e+01
pressure[sink_27] 8.0376751082611847e+01
pressure[sink_28] 76.9503506680301
pressure[sink_29] 7.7245632941647273e+01
interdiction[source_1,sink_3] 0
interdiction[innode_1,sink_16] 0
interdiction[innode_6,sink_13] 0
interdiction[sink_13,sink_14] 0
interdiction[sink_14,sink_10] 0
interdiction[sink_25,sink_26] 0
interdiction[sink_26,sink_9] 0
interdiction[sink_9,sink_18] 0
interdiction[sink_26,sink_4] 1
interdiction[sink_4,sink_20] 0
interdiction[sink_18,sink_6] 1
interdiction[sink_25,innode_8] 0
interdiction[sink_6,sink_7] 0
interdiction[sink_6,sink_22] 0
interdiction[sink_7,sink_24] 0
interdiction[sink_22,sink_1] 0
interdiction[sink_24,sink_21] 0
interdiction[sink_21,sink_12] 0
interdiction[sink_7,sink_5] 0
interdiction[sink_5,sink_17] 0
interdiction[sink_17,sink_4] 0
interdiction[sink_17,sink_8] 0
interdiction[sink_3,sink_23] 0
interdiction[sink_8,sink_20] 0
interdiction[sink_25,sink_20] 0
interdiction[sink_25,sink_15] 0
interdiction[sink_15,sink_29] 0
interdiction[sink_29,sink_28] 0
interdiction[sink_29,sink_2] 0
interdiction[sink_2,sink_15] 0
interdiction[sink_29,innode_7] 0
interdiction[innode_4,sink_19] 0
interdiction[sink_19,innode_3] 0
interdiction[innode_4,innode_5] 0
interdiction[sink_27,innode_5] 0
interdiction[sink_27,sink_19] 0
interdiction[sink_10,sink_11] 0
interdiction[sink_10,innode_2] 0
interdiction[sink_10,innode_3] 0
interdiction[innode_6,sink_25] 0
interdiction[sink_11,innode_1] 0
interdiction[sink_19,innode_2] 0
interdiction[source_3,innode_4] 0
interdiction[source_2,innode_7] 0
interdiction[sink_3,innode_8] 0
WCcheckFlow[source_1,sink_3] 39
WCcheckFlow[innode_1,sink_16] 1
WCcheckFlow[innode_6,sink_13] 13
WCcheckFlow[sink_13,sink_14] 12
WCcheckFlow[sink_14,sink_10] 11
WCcheckFlow[sink_25,sink_26] 3
WCcheckFlow[sink_26,sink_9] 2
WCcheckFlow[sink_9,sink_18] 1
WCcheckFlow[sink_26,sink_4] 0
WCcheckFlow[sink_4,sink_20] -11
WCcheckFlow[sink_18,sink_6] 0
WCcheckFlow[sink_25,innode_8] -36
WCcheckFlow[sink_6,sink_7] -3
WCcheckFlow[sink_6,sink_22] 2
WCcheckFlow[sink_7,sink_24] 3
WCcheckFlow[sink_22,sink_1] 1
WCcheckFlow[sink_24,sink_21] 2
WCcheckFlow[sink_21,sink_12] 1
WCcheckFlow[sink_7,sink_5] -7
WCcheckFlow[sink_5,sink_17] -8
WCcheckFlow[sink_17,sink_4] -10
WCcheckFlow[sink_17,sink_8] 1
WCcheckFlow[sink_3,sink_23] 1
WCcheckFlow[sink_8,sink_20] 0
WCcheckFlow[sink_25,sink_20] 12
WCcheckFlow[sink_25,sink_15] 6
WCcheckFlow[sink_15,sink_29] 5
WCcheckFlow[sink_29,sink_28] 1
WCcheckFlow[sink_29,sink_2] 1
WCcheckFlow[sink_2,sink_15] 0
WCcheckFlow[sink_29,innode_7] 2
WCcheckFlow[innode_4,sink_19] -4
WCcheckFlow[sink_19,innode_3] -5
WCcheckFlow[innode_4,innode_5] 2
WCcheckFlow[sink_27,innode_5] -1
WCcheckFlow[sink_27,sink_19] 0
WCcheckFlow[sink_10,sink_11] 3
WCcheckFlow[sink_10,innode_2] 1
WCcheckFlow[sink_10,innode_3] 6
WCcheckFlow[innode_6,sink_25] -14
WCcheckFlow[sink_11,innode_1] 2
WCcheckFlow[sink_19,innode_2] 0
WCcheckFlow[source_3,innode_4] -1
WCcheckFlow[source_2,innode_7] -1
WCcheckFlow[sink_3,innode_8] 37
